3
4
40
1 1.3 1.55 1.75 2.1
15 43 17 21 23 5 8 46 10 31 30 17 37 46 10 41 35 8 18 16 45 41 31 43 34 33 46 33 30 47 26 49 34 43 15 46 14 7 47 26 40 10 26 20 27 8 49 35 49 29 26 10 47 28 22 41 41 29 16 22 42 30 24 42 45 36 46 25 33 11 22 8 25 11 27 5 25 35 44 46 35 22 23 29 23 12 35 9 35 49 22 10 24 28 48 39 21 44 19 37 14 45 45 10 9 42 7 33 20 33 23 31 12 17 6 20 13 18 32 23 13 15 12 44 14 33 14 42 43 34 46 40 25 6 32 31 16 47 29 32 44 21 15 18 13 6 20 46 24 13 34 49 9 24 43 31 30 46 47 7 